
Gurobi 11.0.1 (win64) logging started Wed May 15 12:30:20 2024

Set parameter LogFile to value "output/solver_log4.txt"
Gurobi Optimizer version 11.0.1 build v11.0.1rc0 (win64 - Windows 11.0 (22631.2))

CPU model: 11th Gen Intel(R) Core(TM) i7-1165G7 @ 2.80GHz, instruction set [SSE2|AVX|AVX2|AVX512]
Thread count: 4 physical cores, 8 logical processors, using up to 8 threads

Optimize a model with 2277 rows, 432 columns and 42047 nonzeros
Model fingerprint: 0xe8e8ecd5
Variable types: 248 continuous, 184 integer (184 binary)
Coefficient statistics:
  Matrix range     [4e-01, 1e+05]
  Objective range  [1e+00, 1e+02]
  Bounds range     [1e+00, 1e+00]
  RHS range        [1e-02, 1e+05]

User MIP start produced solution with objective 75589.5 (0.00s)
User MIP start produced solution with objective 75589.5 (0.01s)
Loaded user MIP start with objective 75589.5

Presolve removed 124 rows and 120 columns
Presolve time: 0.05s
Presolved: 2153 rows, 312 columns, 41306 nonzeros
Variable types: 229 continuous, 83 integer (83 binary)

Root relaxation: objective 7.573015e+04, 572 iterations, 0.04 seconds (0.08 work units)

    Nodes    |    Current Node    |     Objective Bounds      |     Work
 Expl Unexpl |  Obj  Depth IntInf | Incumbent    BestBd   Gap | It/Node Time

     0     0 75730.1531    0    5 75589.5089 75730.1531  0.19%     -    0s
     0     0 75730.1531    0    5 75589.5089 75730.1531  0.19%     -    0s
     0     0 75730.1531    0    5 75589.5089 75730.1531  0.19%     -    0s
H    0     0                    75730.153084 75730.1531  0.00%     -    0s

Cutting planes:
  MIR: 1

Explored 1 nodes (1037 simplex iterations) in 0.60 seconds (0.66 work units)
Thread count was 8 (of 8 available processors)

Solution count 3: 75730.2 75730.2 75589.5 

Optimal solution found (tolerance 1.00e-04)
Best objective 7.573015308417e+04, best bound 7.573015308417e+04, gap 0.0000%
